(set-logic ALL)
(declare-rel itp (Int Int Int))
(declare-rel simple!!query ())
(declare-var X Int)
(declare-var Y Int)
(declare-var Z Int)
(declare-var X1 Int)
(declare-var Y1 Int)
(declare-var Z1 Int)
(rule (=> (and (>= X 0) (>= Y 0) (= Z (* X Y))) (itp X Y Z)))
(rule (=> (and (itp X Y Z) (> X 0) (= X1 (- X 1)) (= Z1 (- Z Y))) (itp X1 Y Z1)))
(rule (=> (and (itp X Y Z) (not (> X 0)) (not (= Z 0))) simple!!query))
(query simple!!query)
